
******************************************************************************
This program contains Ipopt, a library for large-scale nonlinear optimization.
 Ipopt is released as open source code under the Eclipse Public License (EPL).
         For more information visit http://projects.coin-or.org/Ipopt

This version of Ipopt was compiled from source code available at
    https://github.com/IDAES/Ipopt as part of the Institute for the Design of
    Advanced Energy Systems Process Systems Engineering Framework (IDAES PSE
    Framework) Copyright (c) 2018-2019. See https://github.com/IDAES/idaes-pse.

This version of Ipopt was compiled using HSL, a collection of Fortran codes
    for large-scale scientific computation.  All technical papers, sales and
    publicity material resulting from use of the HSL codes within IPOPT must
    contain the following acknowledgement:
        HSL, a collection of Fortran codes for large-scale scientific
        computation. See http://www.hsl.rl.ac.uk.
******************************************************************************

This is Ipopt version 3.13.2, running with linear solver ma27.

Number of nonzeros in equality constraint Jacobian...:      808
Number of nonzeros in inequality constraint Jacobian.:        0
Number of nonzeros in Lagrangian Hessian.............:      702

Total number of variables............................:      351
                     variables with only lower bounds:      108
                variables with lower and upper bounds:      189
                     variables with only upper bounds:        0
Total number of equality constraints.................:      350
Total number of inequality constraints...............:        0
        inequality constraints with only lower bounds:        0
   inequality constraints with lower and upper bounds:        0
        inequality constraints with only upper bounds:        0

iter    objective    inf_pr   inf_du lg(mu)  ||d||  lg(rg) alpha_du alpha_pr  ls
   0  0.0000000e+00 1.48e+00 8.53e-11  -1.0 0.00e+00    -  0.00e+00 0.00e+00   0
   1  2.3466682e+01 8.82e-01 2.09e+06  -1.0 8.08e+06    -  2.04e-02 4.51e-02h  1
   2  2.3858470e+01 8.82e-01 2.09e+06  -1.0 1.25e+07    -  2.43e-02 2.81e-04h  1
   3  2.3929349e+01 8.82e-01 2.09e+06  -1.0 2.83e+07    -  1.33e-02 3.48e-05h  1
   4  5.5733473e+01 8.54e-01 7.98e+06  -1.0 3.03e+07    -  1.17e-02 7.94e-03h  1
   5  5.7429010e+01 8.53e-01 8.78e+06  -1.0 2.75e+07    -  4.21e-04 4.21e-04s 11
   6  1.7040480e+02 3.57e+01 8.19e+07  -1.0 2.73e+07    -  1.32e-02 1.32e-02s 11
   7  2.4626948e+02 3.54e+01 9.72e+07  -1.0 2.83e+07    -  9.53e-03 9.53e-03s 11
   8  2.7720405e+02 4.47e+01 1.12e+08  -1.0 3.01e+07    -  9.21e-03 9.21e-03s 11
   9  2.4672331e+02 4.97e+01 1.21e+08  -1.0 2.22e+07    -  9.29e-03 9.29e-03s 11
iter    objective    inf_pr   inf_du lg(mu)  ||d||  lg(rg) alpha_du alpha_pr  ls
  10  2.2974008e+02 6.43e+01 1.26e+08  -1.0 2.78e+07    -  1.01e-02 1.01e-02s 11
  11  2.2834869e+02 6.36e+01 1.27e+08  -1.0 3.34e+07    -  1.08e-02 1.08e-02s 11
  12  3.2506859e+02 6.29e+01 1.24e+08  -1.0 5.13e+07    -  1.12e-02 1.12e-02s 11
  13r 3.2506859e+02 6.29e+01 9.99e+02   1.8 0.00e+00    -  0.00e+00 0.00e+00R  1
  14r 3.2506668e+02 2.57e+01 9.94e+02   1.8 1.15e+04    -  8.76e-03 3.80e-03f  1
  15r 3.2506611e+02 5.17e+00 9.88e+02   1.8 5.79e+03    -  8.04e-03 3.78e-03f  1
  16r 3.2506530e+02 4.46e+00 9.70e+02   1.8 7.36e+02    -  4.57e-02 7.23e-03f  1
  17r 3.2506222e+02 3.22e+00 9.31e+02   1.8 7.32e+02    -  2.07e-02 4.39e-02f  1
  18r 3.2506111e+02 2.96e+00 9.00e+02   1.8 8.98e+02    -  3.93e-02 3.09e-02f  1
  19r 3.2506020e+02 2.59e+00 8.57e+02   1.8 6.30e+02    -  5.87e-02 4.65e-02f  1
iter    objective    inf_pr   inf_du lg(mu)  ||d||  lg(rg) alpha_du alpha_pr  ls
  20r 3.2505961e+02 1.88e+00 8.13e+02   1.8 4.25e+02    -  4.34e-02 6.61e-02f  1
  21r 3.2505945e+02 1.75e+00 7.10e+02   1.8 4.78e+02    -  3.46e-01 5.18e-02f  1
  22r 3.2505869e+02 7.77e-01 1.04e+03   1.8 2.27e+01    -  6.59e-01 6.12e-01f  1
  23  3.2519288e+02 7.77e-01 2.18e+03  -1.0 2.04e+07    -  9.41e-02 4.27e-05h  1
  24  3.2518675e+02 7.77e-01 2.58e+05  -1.0 1.49e+08    -  2.96e-02 1.56e-05h  5
  25  3.2518604e+02 7.77e-01 3.05e+06  -1.0 4.40e+08    -  5.69e-03 2.54e-07h 12
  26  3.2561661e+02 7.76e-01 4.54e+07  -1.0 1.50e+08    -  1.00e-02 6.00e-04h  5
  27  3.2691390e+02 7.76e-01 4.54e+07  -1.0 2.98e+07    -  3.24e-02 3.02e-04h  7
  28  3.2757178e+02 7.76e-01 4.54e+07  -1.0 3.00e+07    -  3.25e-02 1.49e-04h  8
  29  3.2773648e+02 7.76e-01 4.54e+07  -1.0 3.01e+07    -  3.32e-02 3.68e-05h 10
iter    objective    inf_pr   inf_du lg(mu)  ||d||  lg(rg) alpha_du alpha_pr  ls
  30r 3.2773648e+02 7.76e-01 1.00e+03  -0.1 0.00e+00    -  0.00e+00 2.86e-07R 17
  31r 3.2773636e+02 7.80e-01 9.99e+02  -0.1 7.06e+02    -  9.81e-03 1.03e-03f  1
  32r 3.2773560e+02 7.89e-01 9.93e+02  -0.1 5.25e+02    -  7.38e-03 6.16e-03f  1
  33r 3.2773482e+02 7.94e-01 9.86e+02  -0.1 4.41e+02    -  1.22e-01 6.23e-03f  1
  34r 3.2772288e+02 8.01e-01 8.90e+02  -0.1 2.75e+02    -  7.10e-01 9.67e-02f  1
  35r 3.2772156e+02 8.01e-01 8.82e+02  -0.1 6.30e+02    -  3.64e-01 9.63e-03f  1
  36r 3.2768761e+02 8.02e-01 6.68e+02  -0.1 2.83e+02    -  1.28e-01 2.56e-01f  1
  37r 3.2767155e+02 8.02e-01 5.56e+02  -0.1 2.47e+02    -  2.40e-01 1.53e-01f  1
  38r 3.2759694e+02 8.02e-01 4.09e+02  -0.1 2.14e+02    -  2.84e-01 8.35e-01f  1
  39r 3.2759694e+02 8.02e-01 3.15e+02  -0.1 3.31e+03    -  2.99e-03 6.48e-04f  1
iter    objective    inf_pr   inf_du lg(mu)  ||d||  lg(rg) alpha_du alpha_pr  ls
  40r 3.2759665e+02 8.02e-01 3.02e+02  -0.1 1.40e+02    -  5.38e-02 2.27e-02f  1
  41r 3.2758428e+02 8.02e-01 6.16e+00  -0.1 4.18e+01    -  9.90e-01 1.00e+00f  1
  42r 3.2758485e+02 8.02e-01 6.90e-01  -0.1 1.00e+01    -  9.90e-01 1.00e+00f  1
  43r 3.2758488e+02 8.02e-01 4.70e-02  -0.1 4.20e-01    -  9.90e-01 1.00e+00f  1
  44r 3.2758488e+02 8.02e-01 7.76e-06  -0.1 1.03e-03    -  1.00e+00 1.00e+00h  1
  45r 3.2758290e+02 8.02e-01 3.69e+01  -2.3 2.69e+01    -  9.47e-01 7.73e-01f  1
  46r 3.2639009e+02 7.80e-01 6.14e+01  -2.3 3.72e+03    -  8.69e-01 7.33e-01f  1
  47r 3.2613666e+02 7.76e-01 3.69e+01  -2.3 9.93e+02    -  1.00e+00 5.79e-01f  1
  48r 3.2595521e+02 7.73e-01 4.60e-03  -2.3 4.18e+02    -  1.00e+00 1.00e+00f  1
  49r 3.2595464e+02 7.73e-01 1.39e-01  -5.1 3.37e+01    -  9.99e-01 9.91e-01f  1
iter    objective    inf_pr   inf_du lg(mu)  ||d||  lg(rg) alpha_du alpha_pr  ls
  50r 3.2088562e+02 7.48e-01 8.71e+02  -5.1 1.07e+05    -  7.93e-01 1.38e-01f  1
  51r 3.0643668e+02 7.11e-01 6.00e+02  -5.1 9.21e+04    -  1.00e+00 4.65e-01f  1
  52r 3.0643623e+02 7.11e-01 2.95e+02  -5.1 4.94e+04    -  1.00e+00 2.62e-05f  1
  53r 2.9527623e+02 7.12e-01 1.37e+02  -5.1 4.94e+04    -  1.00e+00 6.55e-01f  1
  54r 2.9527575e+02 7.12e-01 1.85e+02  -5.1 1.71e+04    -  1.00e+00 7.78e-05h  1
  55r 2.8912981e+02 7.12e-01 2.14e-02  -5.1 1.71e+04    -  1.00e+00 1.00e+00f  1
  56r 2.8903781e+02 7.12e-01 9.05e-06  -5.1 7.39e+02    -  1.00e+00 1.00e+00h  1
  57r 2.8903718e+02 7.12e-01 1.06e-08  -5.1 9.09e+00    -  1.00e+00 1.00e+00h  1
  58r 2.8903717e+02 7.12e-01 6.66e-03  -7.6 7.47e-02    -  1.00e+00 1.00e+00f  1
  59r 2.8903577e+02 7.12e-01 5.88e+02  -7.6 6.64e+01  -4.0 1.00e+00 1.88e-01f  1
iter    objective    inf_pr   inf_du lg(mu)  ||d||  lg(rg) alpha_du alpha_pr  ls
  60r 2.8901356e+02 7.12e-01 6.57e-03  -7.6 1.97e+02  -4.5 1.00e+00 1.00e+00f  1
  61r 2.8894786e+02 7.12e-01 6.33e-03  -7.6 5.69e+02  -5.0 1.00e+00 1.00e+00f  1
  62r 2.8875831e+02 7.12e-01 5.75e-03  -7.6 1.54e+03  -5.4 1.00e+00 1.00e+00f  1
  63r 2.8824203e+02 7.12e-01 4.66e-03  -7.6 3.62e+03  -5.9 1.00e+00 1.00e+00f  1
  64r 2.8696656e+02 7.12e-01 1.64e-02  -7.6 7.67e+03  -6.4 1.00e+00 1.00e+00f  1
  65r 2.8415107e+02 7.12e-01 6.31e-02  -7.6 1.65e+04  -6.9 1.00e+00 1.00e+00f  1
  66r 2.7849373e+02 7.12e-01 1.25e-01  -7.6 2.89e+04  -7.3 1.00e+00 1.00e+00f  1
  67r 2.7619715e+02 7.12e-01 1.22e+01  -7.6 3.91e+04  -7.8 1.00e+00 2.12e-01f  1
  68r 2.7619714e+02 7.12e-01 7.26e+02  -7.6 8.53e+04  -8.3 1.00e+00 4.98e-07f  1
  69r 2.7156341e+02 7.12e-01 6.41e+02  -7.6 4.04e+05  -8.8 1.00e+00 9.69e-02f  1
iter    objective    inf_pr   inf_du lg(mu)  ||d||  lg(rg) alpha_du alpha_pr  ls
  70r 2.7156341e+02 7.12e-01 1.11e+03  -7.6 1.04e+05  -8.3 1.00e+00 8.15e-08h  1
  71r 2.6962940e+02 7.12e-01 1.15e+03  -7.6 5.77e+05  -8.8 1.00e+00 3.89e-02f  1
  72r 2.6962911e+02 7.12e-01 1.55e+03  -7.6 1.13e+06  -9.3 3.84e-01 2.28e-06f  1
  73r 2.4965422e+02 7.13e-01 1.01e+03  -7.6 2.27e+05  -8.9 1.00e+00 4.00e-01f  1
  74r 2.4965422e+02 7.13e-01 5.45e+02  -7.6 9.19e+04  -8.4 1.00e+00 5.24e-08h  1
  75r 2.3434422e+02 7.13e-01 6.98e+02  -7.6 4.43e+05  -8.9 1.00e+00 3.12e-01f  1
  76r 2.3434422e+02 7.13e-01 5.36e+02  -7.6 2.72e+05  -8.5 1.00e+00 8.02e-08h  1
  77r 2.3403115e+02 7.14e-01 6.47e+02  -7.6 6.08e+04  -8.1 1.00e+00 3.55e-02f  1
  78r 2.3391418e+02 7.14e-01 5.14e+02  -7.6 3.67e+05  -8.5 1.00e+00 4.91e-03f  1
  79r 2.2451579e+02 7.14e-01 4.39e-02  -7.6 7.24e+04  -8.1 1.00e+00 1.00e+00f  1
iter    objective    inf_pr   inf_du lg(mu)  ||d||  lg(rg) alpha_du alpha_pr  ls
  80r 2.2166701e+02 7.14e-01 3.70e+00  -7.6 3.61e+04  -7.7 1.00e+00 9.24e-01f  1
  81r 2.2007386e+02 7.14e-01 1.28e+01  -7.6 5.25e+05  -8.2 1.00e+00 2.21e-01f  1
  82r 2.2007386e+02 7.14e-01 1.39e+02  -7.6 4.44e+04  -6.8 1.00e+00 1.00e-08h  1
  83r 2.1894754e+02 7.14e-01 8.75e+01  -7.6 2.56e+04  -7.3 8.43e-01 1.00e+00f  1
  84r 2.1690387e+02 7.14e-01 7.10e+01  -7.6 1.28e+04  -7.8 1.00e+00 7.36e-01f  1
  85r 2.1076160e+02 7.14e-01 5.91e+00  -7.6 4.06e+04  -8.3 1.00e+00 8.49e-01f  1
  86r 2.1076160e+02 7.14e-01 5.23e+02  -7.6 1.54e+05  -8.8 1.00e+00 2.03e-08h  1
  87r 2.1004162e+02 7.14e-01 7.69e+02  -7.6 9.80e+05  -9.2 1.00e+00 1.11e-02f  1
  88r 2.0345005e+02 7.15e-01 2.42e+02  -7.6 1.86e+05  -8.8 1.00e+00 6.24e-01f  1
  89r 2.0345005e+02 7.15e-01 2.63e+02  -7.6 8.52e+04  -8.4 1.00e+00 9.44e-08h  1
iter    objective    inf_pr   inf_du lg(mu)  ||d||  lg(rg) alpha_du alpha_pr  ls
  90r 2.0111698e+02 7.15e-01 2.08e+02  -7.6 5.02e+05  -8.9 1.00e+00 5.32e-01f  1
  91r 2.0111698e+02 7.15e-01 1.49e+02  -7.6 6.54e+04  -7.5 1.00e+00 1.36e-08h  1
  92r 1.9983656e+02 7.15e-01 2.46e-02  -7.6 5.89e+04  -8.0 1.00e+00 1.00e+00f  1
  93r 1.9942307e+02 7.15e-01 1.03e+02  -7.6 5.56e+04  -8.5 1.00e+00 2.03e-01f  1
  94r 1.9929538e+02 7.15e-01 2.30e+02  -7.6 1.96e+05  -9.0 1.00e+00 3.25e-02f  1
  95r 1.9917793e+02 7.15e-01 2.52e+02  -7.6 1.16e+06  -9.4 1.00e+00 4.82e-02f  1
  96r 1.9917791e+02 7.15e-01 8.13e+02  -7.6 5.63e+06  -9.9 1.00e+00 2.39e-07f  1
  97r 1.9553254e+02 7.17e-01 1.05e+02  -7.6 5.94e+05  -9.5 1.00e+00 8.58e-01f  1
  98r 1.9553254e+02 7.17e-01 9.65e+02  -7.6 2.88e+05  -9.1 1.00e+00 1.05e-08h  1
  99r 1.9521251e+02 7.18e-01 1.58e+02  -7.6 6.54e+05  -9.5 1.00e+00 7.49e-01f  1
iter    objective    inf_pr   inf_du lg(mu)  ||d||  lg(rg) alpha_du alpha_pr  ls
 100r 1.9557383e+02 7.18e-01 1.33e+02  -7.6 6.07e+04  -8.2 1.00e+00 8.05e-01f  1
 101r 1.9557383e+02 7.18e-01 3.10e+02  -7.6 4.60e+05  -8.7 1.00e+00 5.54e-09h  1
 102r 2.1098458e+02 7.21e-01 5.12e+02  -7.6 2.72e+05    -  1.00e+00 5.00e-01f  1
 103r 2.2232070e+02 7.23e-01 2.51e+02  -7.6 2.31e+05    -  8.85e-01 4.04e-01f  1
 104r 2.2232070e+02 7.23e-01 2.51e+02  -7.6 1.38e+05    -  6.37e-07 2.24e-08h  1
 105r 2.2232071e+02 7.23e-01 3.75e+02  -7.6 8.87e+04    -  1.00e+00 8.98e-07h  1
 106r 2.3275117e+02 7.25e-01 1.11e+00  -7.6 7.05e+04    -  1.00e+00 1.00e+00f  1
 107r 2.3334745e+02 7.25e-01 1.63e-02  -7.6 5.49e+03    -  1.00e+00 1.00e+00h  1
 108r 2.3335042e+02 7.25e-01 6.77e-07  -7.6 2.87e+01    -  1.00e+00 1.00e+00h  1
 109r 2.3335042e+02 7.25e-01 1.27e-03  -9.0 1.96e-02    -  1.00e+00 1.00e+00h  1
iter    objective    inf_pr   inf_du lg(mu)  ||d||  lg(rg) alpha_du alpha_pr  ls
 110r 2.3472890e+02 7.25e-01 2.35e+02  -9.0 1.25e+05  -9.2 7.25e-02 4.13e-01f  1
 111r 2.4324398e+02 7.27e-01 3.83e+02  -9.0 2.72e+05  -9.6 7.06e-08 2.37e-01f  1
 112r 2.4324398e+02 7.27e-01 6.69e+02  -9.0 1.06e+05  -9.2 0.00e+00 1.52e-12R  9
 113r 2.4324398e+02 7.27e-01 6.69e+02  -9.0 5.22e+05  -9.7 5.56e-01 6.56e-13f  9
 114r 2.4324350e+02 7.27e-01 6.69e+02  -9.0 3.24e+06    -  1.31e-02 3.63e-06f  4
 115r 2.4324350e+02 7.27e-01 6.69e+02  -9.0 1.08e+05  -9.3 1.46e-01 5.38e-10f  1
 116r 2.4324647e+02 7.27e-01 6.68e+02  -9.0 9.54e+05    -  3.23e-01 3.85e-05f  3
 117r 2.4324632e+02 7.27e-01 6.68e+02  -9.0 2.02e+05  -8.8 8.82e-03 1.15e-05f  6
 118r 2.4324632e+02 7.27e-01 6.68e+02  -9.0 1.25e+00   1.0 6.83e-03 2.98e-04f  1
 119r 2.4324632e+02 7.27e-01 6.68e+02  -9.0 1.63e+00   0.5 2.01e-09 1.23e-03f  7
iter    objective    inf_pr   inf_du lg(mu)  ||d||  lg(rg) alpha_du alpha_pr  ls
 120r 2.4324632e+02 7.27e-01 6.67e+02  -9.0 5.21e-01   0.1 3.11e-02 2.98e-06f  1
 121r 2.4324632e+02 7.27e-01 6.67e+02  -9.0 1.87e+00  -0.4 1.29e-05 2.29e-04f  8
 122r 2.4324632e+02 7.27e-01 6.67e+02  -9.0 5.42e+00  -0.9 7.09e-04 8.52e-05f  8
 123r 2.4324632e+02 7.27e-01 6.66e+02  -9.0 3.43e+00  -0.5 4.95e-04 8.02e-04f  5
 124r 2.4324632e+02 7.27e-01 6.66e+02  -9.0 5.24e-01  -0.1 1.14e-01 1.77e-04f  3
 125r 2.4324632e+02 7.27e-01 6.65e+02  -9.0 2.34e+00  -0.5 1.33e-03 1.73e-04f  8
 126r 2.4324632e+02 7.27e-01 6.65e+02  -9.0 6.85e+00  -1.0 2.92e-04 8.03e-03f  1
 127r 2.4324632e+02 7.27e-01 9.02e+02  -9.0 1.10e+00  -1.5 2.04e-01 8.18e-04f  1
 128r 2.4324631e+02 7.27e-01 8.32e+02  -9.0 2.56e+00  -2.0 6.72e-03 2.05e-01f  1
 129r 2.4324630e+02 7.27e-01 6.31e+02  -9.0 7.91e+00  -2.4 5.33e-02 2.39e-01f  1
iter    objective    inf_pr   inf_du lg(mu)  ||d||  lg(rg) alpha_du alpha_pr  ls
 130r 2.4324626e+02 7.27e-01 9.24e+02  -9.0 2.36e+01  -2.9 7.86e-02 3.82e-01f  1
 131r 2.4324612e+02 7.27e-01 2.48e+03  -9.0 5.69e+01  -3.4 1.96e-02 4.73e-01f  1
 132r 2.4324581e+02 7.27e-01 4.54e+03  -9.0 6.57e+01  -3.9 1.86e-02 4.32e-01f  1
 133r 2.4324475e+02 7.27e-01 2.80e+03  -9.0 1.14e+02  -4.3 8.27e-02 3.83e-01f  1
 134r 2.4324138e+02 7.27e-01 1.23e+03  -9.0 1.62e+02  -4.8 2.72e-01 5.62e-01f  1
 135r 2.4324138e+02 7.27e-01 1.40e+03  -9.0 4.42e+02  -5.3 1.00e+00 1.69e-06f  1
 136r 2.4324042e+02 7.27e-01 2.01e+03  -9.0 7.27e+02  -5.8 1.00e+00 2.66e-02f  1
 137r 2.4323863e+02 7.27e-01 2.03e+03  -9.0 1.54e+03  -6.3 1.00e+00 1.86e-02f  1
 138r 2.4322683e+02 7.27e-01 2.17e+03  -9.0 3.38e+03  -6.7 1.00e+00 3.81e-02f  1
 139r 2.4291730e+02 7.27e-01 1.43e+03  -9.0 9.04e+03  -7.2 1.00e+00 3.23e-01f  1
iter    objective    inf_pr   inf_du lg(mu)  ||d||  lg(rg) alpha_du alpha_pr  ls
 140r 2.4291730e+02 7.27e-01 1.43e+03  -9.0 2.00e+04  -7.7 0.00e+00 9.94e-15R 21
 141r 2.4291730e+02 7.27e-01 1.43e+03  -9.0 4.51e+04  -8.2 1.00e+00 4.30e-11f  9
 142r 2.4285820e+02 7.27e-01 1.37e+03  -9.0 1.09e+05  -8.6 1.00e+00 3.19e-03f  1
 143r 2.5868308e+02 7.27e-01 1.20e+03  -9.0 1.33e+06    -  5.96e-01 1.34e-01f  1
 144r 2.5868308e+02 7.27e-01 1.20e+03  -9.0 2.32e+02  -0.8 5.81e-11 6.34e-06f  1
 145r 2.5869072e+02 7.27e-01 1.30e+03  -9.0 7.81e+05    -  1.00e+00 7.76e-05f  1
 146r 2.5943673e+02 7.27e-01 1.31e+03  -9.0 6.75e+05    -  1.00e+00 7.94e-03f  1
 147r 2.7847744e+02 7.27e-01 1.06e+03  -9.0 6.05e+05    -  1.00e+00 1.98e-01f  1
 148r 2.7847745e+02 7.27e-01 9.02e+02  -9.0 4.28e+05    -  1.00e+00 8.99e-08h  1
 149r 3.5636073e+02 7.26e-01 1.09e+01  -9.0 4.28e+05    -  1.00e+00 9.99e-01f  1
iter    objective    inf_pr   inf_du lg(mu)  ||d||  lg(rg) alpha_du alpha_pr  ls
 150r 3.5763132e+02 7.25e-01 3.75e+00  -9.0 3.40e+04    -  1.00e+00 9.45e-01h  1
 151r 3.5722972e+02 7.25e-01 2.91e-03  -9.0 3.45e+03    -  1.00e+00 1.00e+00h  1
 152r 3.5722146e+02 7.25e-01 7.74e-08  -9.0 2.50e+01    -  1.00e+00 1.00e+00h  1

Number of Iterations....: 152

                                   (scaled)                 (unscaled)
Objective...............:   3.5722145933041594e+02    3.5722145933041594e+02
Dual infeasibility......:   5.5807645171286786e-04    5.5807645171286786e-04
Constraint violation....:   7.2528350734545843e-01    7.2528350734545843e-01
Complementarity.........:   9.0909090909098665e-10    9.0909090909098665e-10
Overall NLP error.......:   7.2528350734545843e-01    7.2528350734545843e-01


Number of objective function evaluations             = 341
Number of objective gradient evaluations             = 24
Number of equality constraint evaluations            = 343
Number of inequality constraint evaluations          = 0
Number of equality constraint Jacobian evaluations   = 158
Number of inequality constraint Jacobian evaluations = 0
Number of Lagrangian Hessian evaluations             = 153
Total CPU secs in IPOPT (w/o function evaluations)   =      0.275
Total CPU secs in NLP function evaluations           =      3.846

EXIT: Converged to a point of local infeasibility. Problem may be infeasible.
